db/inputs/11334184211659727195246631476193331497.smt2
(set-logic QF_FP)
(declare-const x0 (_ FloatingPoint 8 24))
(declare-const x1 (_ FloatingPoint 8 24))
(declare-const x2 (_ FloatingPoint 8 24))
(declare-const x3 (_ FloatingPoint 8 24))
(declare-const x4 (_ FloatingPoint 8 24))
(declare-const x5 (_ FloatingPoint 8 24))
(declare-const x6 (_ FloatingPoint 8 24))
(assert (fp.geq (fp.sub RNE x2 x1) (fp.mul RNE x6 x5)))
(assert (fp.eq (fp.div RNE x6 x0) (fp.add RNE x3 x1)))
(assert (fp.eq (fp.mul RNE x5 x5) (fp.neg x5)))
(assert (fp.leq (fp.div RNE x3 x0) (fp.div RNE x4 x0)))
(assert (fp.eq (fp.div RNE x3 x1) (fp.neg x3)))
(assert (fp.geq (fp.mul RNE x4 x0) (fp.mul RNE x6 x2)))
(assert (fp.gt (fp.div RNE x5 x1) (fp.div RNE x0 x3)))
(assert (fp.leq (fp.neg x6) (fp.div RNE x3 x1)))
(assert (fp.eq (fp.neg x3) (fp.div RNE x1 x0)))
(assert (fp.lt (fp.add RNE x4 x2) (fp.mul RNE x3 x5)))
(assert (fp.geq (fp.sub RNE x0 x6) (fp.div RNE x3 x5)))
(assert (fp.eq (fp.sub RNE x3 x0) (fp.mul RNE x4 x4)))
(check-sat)
