db/data/11334184211659727195246631476193331497.z3.out
unsat
-------------------
631.915546716
